2
150 2
36
30 1 1
31 1 3
32 1 2
33 1 1
34 1 2
36 1 2
38 1 1
41 1 1
42 1 2
45 1 1
49 1 1
50 1 1
53 1 1
55 1 1
56 1 1
58 1 1
60 1 3
62 1 2
63 1 2
65 1 1
66 1 1
67 1 1
68 1 1
69 1 1
70 1 1
71 1 2
76 1 1
80 1 2
83 1 1
85 1 2
87 1 2
90 1 1
95 1 1
97 1 1
98 1 1
99 1 1
